NAME : problems/40-tsp/instance-24.tsp
COMMENT : No Comment
TYPE : TSP
DIMENSION: 40
EDGE_WEIGHT_TYPE : EUC_2D
NODE_COORD_SECTION
1 595 383 
2 5600 8756 
3 1466 9658 
4 6244 3663 
5 3705 7289 
6 9421 3294 
7 1975 9030 
8 2015 833 
9 2452 1315 
10 5699 1994 
11 8858 9757 
12 1931 2108 
13 9990 4362 
14 4003 127 
15 4638 6911 
16 1585 3756 
17 9770 6871 
18 836 1343 
19 8105 7335 
20 7455 7100 
21 5124 2332 
22 1075 4540 
23 4575 275 
24 1441 7899 
25 2337 4955 
26 2890 262 
27 9646 2477 
28 1571 7967 
29 7176 7784 
30 6383 1575 
31 7001 9007 
32 111 2163 
33 7211 7888 
34 6568 8184 
35 9129 2037 
36 420 2574 
37 7452 1685 
38 5692 9762 
39 1849 544 
40 9837 1972 
EOF
